p cnf 9 59
8 3 2 1 0
5 -8 0
-9 -6 7 0
-4 -1 8 9 0
-4 9 6 0
-8 -3 6 -1 0
8 -7 1 5 0
8 -4 1 7 2 0
-1 2 -3 4 0
-4 -9 0
6 -5 -3 0
6 -5 -9 1 0
-1 8 3 0
6 3 2 1 5 9 4 7 -8 0
-9 7 -6 4 -5 1 -8 0
7 5 9 4 -3 -1 -2 0
9 -4 -2 0
-7 -8 1 0
-8 -3 -4 0
6 -4 -5 -8 9 -1 -3 -7 0
7 -3 -1 0
6 8 1 0
3 1 0
7 2 -3 -5 6 -8 -9 0
-1 -7 4 0
1 3 -4 0
-1 -2 3 4 0
-4 8 7 5 0
-7 2 3 0
9 -3 0
-6 1 -3 -2 4 -5 -9 7 -8 0
-7 -8 -1 9 -2 0
-3 -2 -4 -5 6 0
4 5 -3 0
6 -4 -5 9 0
-7 -3 -8 6 -2 9 0
-5 -1 -4 -8 0
5 -2 8 0
-9 6 -1 2 8 5 0
1 5 6 2 0
6 -2 9 -3 -8 0
8 9 -3 6 4 1 -5 0
8 -5 -1 0
-8 -5 1 0
-7 -9 -3 8 0
4 -1 -7 -6 -8 0
5 3 9 0
3 -7 -5 0
7 -9 -6 0
-3 7 2 -9 -5 -8 4 0
-5 -2 3 8 -9 -1 6 -7 4 0
2 8 -7 0
4 3 -9 -1 0
7 -8 -6 -1 0
-9 -1 -5 0
-8 -5 -6 7 0
1 -9 0
1 -8 -6 -5 2 0
-6 2 -1 -8 4 0
